(set-info :smt-lib-version 2.6)
(set-logic AUFBVFPDTNIRA)
(set-info :source |
Generated by: AdaCore
Generated on: 2020-03-06
Generator: SPARK
Application: Program verification for Ada
Target solver: CVC4
|)
(set-info :license "https://creativecommons.org/licenses/by/4.0/")
(set-info :category "industrial")
(set-info :status unknown)
;;; generated by SMT-LIB2 driver
;;; SMT-LIB2 driver: bit-vectors, common part
;;; SMT-LIB2: integer arithmetic
(declare-sort string 0)

(declare-datatypes ((tuple0 0))
(((Tuple0))))
(declare-sort us_private 0)

(declare-fun private__bool_eq (us_private us_private) Bool)

(declare-const us_null_ext__ us_private)

(declare-sort us_type_of_heap 0)

(declare-datatypes ((us_type_of_heap__ref 0))
(((us_type_of_heap__refqtmk (us_type_of_heap__content us_type_of_heap)))))
(declare-sort us_image 0)

(declare-datatypes ((int__ref 0))
(((int__refqtmk (int__content Int)))))
(declare-datatypes ((bool__ref 0))
(((bool__refqtmk (bool__content Bool)))))
(declare-datatypes ((us_fixed__ref 0))
(((us_fixed__refqtmk (us_fixed__content Int)))))
(declare-datatypes ((real__ref 0))
(((real__refqtmk (real__content Real)))))
(declare-datatypes ((us_private__ref 0))
(((us_private__refqtmk (us_private__content us_private)))))
(define-fun int__ref___projection ((a int__ref)) Int (int__content a))

(define-fun us_fixed__ref___projection ((a us_fixed__ref)) Int (us_fixed__content
                                                               a))

(define-fun bool__ref___projection ((a bool__ref)) Bool (bool__content a))

(define-fun real__ref___projection ((a real__ref)) Real (real__content a))

(define-fun us_private__ref___projection ((a us_private__ref)) us_private 
  (us_private__content a))

(define-fun in_range ((x Int)) Bool (or (= x 0) (= x 1)))

(declare-fun attr__ATTRIBUTE_IMAGE (Bool) us_image)

(declare-fun attr__ATTRIBUTE_VALUE__pre_check (us_image) Bool)

(declare-fun attr__ATTRIBUTE_VALUE (us_image) Bool)

(declare-sort us_main_type 0)

(declare-fun us_main_eq (us_main_type us_main_type) Bool)

(declare-sort us_rep 0)

(declare-fun bool_eq (us_rep us_rep) Bool)

(declare-const value__size Int)

(declare-const object__size Int)

(declare-const alignment Int)

;; value__size_axiom
  (assert (<= 0 value__size))

;; object__size_axiom
  (assert (<= 0 object__size))

;; alignment_axiom
  (assert (<= 0 alignment))

(declare-fun user_eq (us_rep us_rep) Bool)

(declare-const dummy us_rep)

(declare-datatypes ((sequence__ref 0))
(((sequence__refqtmk (sequence__content us_rep)))))
(define-fun sequence__ref_sequence__content__projection ((a sequence__ref)) us_rep 
  (sequence__content a))

(declare-fun length (us_rep) Int)

(declare-fun length__function_guard (Int us_rep) Bool)

(declare-sort count_type 0)

(declare-fun count_typeqtint (count_type) Int)

;; count_type'axiom
  (assert
  (forall ((i count_type))
  (and (<= 0 (count_typeqtint i)) (<= (count_typeqtint i) 2147483647))))

(define-fun in_range1 ((x Int)) Bool (and (<= 0 x) (<= x 2147483647)))

(declare-fun attr__ATTRIBUTE_IMAGE1 (Int) us_image)

(declare-fun attr__ATTRIBUTE_VALUE__pre_check1 (us_image) Bool)

(declare-fun attr__ATTRIBUTE_VALUE1 (us_image) Int)

(declare-fun user_eq1 (count_type count_type) Bool)

(declare-const dummy1 count_type)

(declare-datatypes ((count_type__ref 0))
(((count_type__refqtmk (count_type__content count_type)))))
(define-fun count_type__ref_count_type__content__projection ((a count_type__ref)) count_type 
  (count_type__content a))

(define-fun dynamic_invariant ((temp___expr_299 Int)
  (temp___is_init_295 Bool) (temp___skip_constant_296 Bool)
  (temp___do_toplevel_297 Bool)
  (temp___do_typ_inv_298 Bool)) Bool (=>
                                     (or (= temp___is_init_295 true)
                                     (<= 0 2147483647)) (in_range1
                                     temp___expr_299)))

(define-fun length1 ((x Int) (y Int)) Int (ite (<= x y) (+ (- y x) 1) 0))

(define-fun last ((container us_rep)) Int (+ 0 (length container)))

(declare-fun last__function_guard (Int us_rep) Bool)

(declare-sort integer 0)

(declare-fun integerqtint (integer) Int)

;; integer'axiom
  (assert
  (forall ((i integer))
  (and (<= (- 2147483648) (integerqtint i)) (<= (integerqtint i) 2147483647))))

(define-fun in_range2 ((x Int)) Bool (and (<= (- 2147483648) x)
                                     (<= x 2147483647)))

(declare-fun attr__ATTRIBUTE_IMAGE2 (Int) us_image)

(declare-fun attr__ATTRIBUTE_VALUE__pre_check2 (us_image) Bool)

(declare-fun attr__ATTRIBUTE_VALUE2 (us_image) Int)

(declare-fun user_eq2 (integer integer) Bool)

(declare-const dummy2 integer)

(declare-datatypes ((integer__ref 0))
(((integer__refqtmk (integer__content integer)))))
(define-fun integer__ref_integer__content__projection ((a integer__ref)) integer 
  (integer__content a))

(define-fun to_rep ((x integer)) Int (integerqtint x))

(declare-fun of_rep (Int) integer)

;; inversion_axiom
  (assert
  (forall ((x integer)) (! (= (of_rep (to_rep x)) x) :pattern ((to_rep x)) )))

;; range_axiom
  (assert
  (forall ((x integer)) (! (in_range2 (to_rep x)) :pattern ((to_rep x)) )))

;; coerce_axiom
  (assert
  (forall ((x Int))
  (! (=> (in_range2 x) (= (to_rep (of_rep x)) x)) :pattern ((to_rep
                                                            (of_rep x))) )))

(declare-sort positive 0)

(declare-fun positiveqtint (positive) Int)

;; positive'axiom
  (assert
  (forall ((i positive))
  (and (<= 1 (positiveqtint i)) (<= (positiveqtint i) 2147483647))))

(define-fun in_range3 ((x Int)) Bool (and (<= 1 x) (<= x 2147483647)))

(declare-fun attr__ATTRIBUTE_IMAGE3 (Int) us_image)

(declare-fun attr__ATTRIBUTE_VALUE__pre_check3 (us_image) Bool)

(declare-fun attr__ATTRIBUTE_VALUE3 (us_image) Int)

(declare-fun user_eq3 (positive positive) Bool)

(declare-const dummy3 positive)

(declare-datatypes ((positive__ref 0))
(((positive__refqtmk (positive__content positive)))))
(define-fun positive__ref_positive__content__projection ((a positive__ref)) positive 
  (positive__content a))

(declare-sort character 0)

(define-fun in_range4 ((x Int)) Bool (and (<= 0 x) (<= x 255)))

(declare-fun attr__ATTRIBUTE_IMAGE4 (Int) us_image)

(declare-fun attr__ATTRIBUTE_VALUE__pre_check4 (us_image) Bool)

(declare-fun attr__ATTRIBUTE_VALUE4 (us_image) Int)

(declare-fun user_eq4 (character character) Bool)

(declare-const dummy4 character)

(declare-datatypes ((character__ref 0))
(((character__refqtmk (character__content character)))))
(define-fun character__ref_character__content__projection ((a character__ref)) character 
  (character__content a))

(declare-fun to_rep1 (character) Int)

(declare-fun of_rep1 (Int) character)

;; inversion_axiom
  (assert
  (forall ((x character))
  (! (= (of_rep1 (to_rep1 x)) x) :pattern ((to_rep1 x)) )))

;; range_axiom
  (assert
  (forall ((x character)) (! (in_range4
  (to_rep1 x)) :pattern ((to_rep1 x)) )))

;; coerce_axiom
  (assert
  (forall ((x Int))
  (! (=> (in_range4 x) (= (to_rep1 (of_rep1 x)) x)) :pattern ((to_rep1
                                                              (of_rep1 x))) )))

(declare-datatypes ((map__ref 0))
(((map__refqtmk (map__content (Array Int character))))))
(declare-fun slide ((Array Int character) Int Int) (Array Int character))

;; slide_eq
  (assert
  (forall ((a (Array Int character)))
  (forall ((first Int))
  (! (= (slide a first first) a) :pattern ((slide a first first)) ))))

;; slide_def
  (assert
  (forall ((a (Array Int character)))
  (forall ((old_first Int))
  (forall ((new_first Int))
  (forall ((i Int))
  (! (= (select (slide a old_first new_first) i) (select a (- i (- new_first old_first)))) :pattern ((select 
  (slide a old_first new_first) i)) ))))))

(define-fun bool_eq1 ((a (Array Int character)) (a__first Int) (a__last Int)
  (b (Array Int character)) (b__first Int)
  (b__last Int)) Bool (ite (and
                           (ite (<= a__first a__last)
                           (and (<= b__first b__last)
                           (= (- a__last a__first) (- b__last b__first)))
                           (< b__last b__first))
                           (forall ((temp___idx_91 Int))
                           (=>
                           (and (<= a__first temp___idx_91)
                           (<= temp___idx_91 a__last))
                           (= (to_rep1 (select a temp___idx_91)) (to_rep1
                                                                 (select b (+ (- b__first a__first) temp___idx_91)))))))
                      true false))

;; bool_eq_rev
  (assert
  (forall ((a (Array Int character)) (b (Array Int character)))
  (forall ((a__first Int) (a__last Int) (b__first Int) (b__last Int))
  (=> (= (bool_eq1 b b__first b__last a a__first a__last) true)
  (and
  (ite (<= a__first a__last)
  (and (<= b__first b__last) (= (- a__last a__first) (- b__last b__first)))
  (< b__last b__first))
  (forall ((temp___idx_91 Int))
  (=> (and (<= a__first temp___idx_91) (<= temp___idx_91 a__last))
  (= (to_rep1 (select a temp___idx_91)) (to_rep1
                                        (select b (+ (- b__first a__first) temp___idx_91)))))))))))

(declare-sort t 0)

(declare-fun first (t) integer)

(declare-fun last1 (t) integer)

(declare-fun mk (Int Int) t)

;; mk_def
  (assert
  (forall ((f Int) (l Int))
  (! (=> (in_range2 f)
     (=> (in_range2 l)
     (and (= (to_rep (first (mk f l))) f) (= (to_rep (last1 (mk f l))) l)))) :pattern (
  (mk f l)) )))

(define-fun dynamic_property ((range_first Int) (range_last Int) (low Int)
  (high Int)) Bool (and (in_range2 low)
                   (and (in_range2 high)
                   (=> (<= low high) (and (in_range3 low) (in_range3 high))))))

(declare-datatypes ((us_t 0))
(((us_tqtmk (elts (Array Int character))(rt t)))))
(define-fun to_array ((a us_t)) (Array Int character) (elts a))

(define-fun of_array ((a (Array Int character)) (f Int)
  (l Int)) us_t (us_tqtmk a (mk f l)))

(define-fun first1 ((a us_t)) Int (to_rep (first (rt a))))

(define-fun last2 ((a us_t)) Int (to_rep (last1 (rt a))))

(define-fun length2 ((a us_t)) Int (ite (<= (first1 a) (last2 a))
                                   (+ (- (last2 a) (first1 a)) 1) 0))

(declare-const value__size1 Int)

(declare-const object__size1 Int)

(declare-const component__size Int)

(declare-const alignment1 Int)

;; value__size_axiom
  (assert (<= 0 value__size1))

;; object__size_axiom
  (assert (<= 0 object__size1))

;; component__size_axiom
  (assert (<= 0 component__size))

;; alignment_axiom
  (assert (<= 0 alignment1))

(define-fun bool_eq2 ((x us_t)
  (y us_t)) Bool (bool_eq1 (elts x) (to_rep (first (rt x)))
                 (to_rep (last1 (rt x))) (elts y) (to_rep (first (rt y)))
                 (to_rep (last1 (rt y)))))

(declare-fun user_eq5 (us_t us_t) Bool)

(declare-const dummy5 us_t)

(declare-datatypes ((string____ref 0))
(((string____refqtmk (string____content us_t)))))
(define-fun string____ref_string____content__projection ((a string____ref)) us_t 
  (string____content a))

(declare-datatypes ((email_address_type__ref 0))
(((email_address_type__refqtmk (email_address_type__content us_t)))))
(define-fun email_address_type__ref_email_address_type__content__projection ((a email_address_type__ref)) us_t 
  (email_address_type__content a))

(declare-datatypes ((us_rep1 0))
(((us_repqtmk
  (rec__database__email_access__is_null_pointer Bool)(rec__database__email_access__pointer_address Int)(rec__database__email_access__pointer_value us_t)))))
(define-fun us_rep_rec__database__email_access__is_null_pointer__projection ((a us_rep1)) Bool 
  (rec__database__email_access__is_null_pointer a))

(define-fun us_rep_rec__database__email_access__pointer_address__projection ((a us_rep1)) Int 
  (rec__database__email_access__pointer_address a))

(define-fun us_rep_rec__database__email_access__pointer_value__projection ((a us_rep1)) us_t 
  (rec__database__email_access__pointer_value a))

(declare-datatypes ((us_rep__ref 0))
(((us_rep__refqtmk (us_rep__content us_rep1)))))
(define-fun us_rep__ref___rep__content__projection ((a us_rep__ref)) us_rep1 
  (us_rep__content a))

(define-fun bool_eq3 ((a us_rep1)
  (b us_rep1)) Bool (ite (and
                         (= (rec__database__email_access__is_null_pointer a) 
                         (rec__database__email_access__is_null_pointer b))
                         (=>
                         (not
                         (= (rec__database__email_access__is_null_pointer a) true))
                         (and
                         (= (rec__database__email_access__pointer_address a) 
                         (rec__database__email_access__pointer_address b))
                         (= (rec__database__email_access__pointer_value a) 
                         (rec__database__email_access__pointer_value b)))))
                    true false))

(define-fun rec__database__email_access__pointer_value__pred ((a us_rep1)) Bool 
  (not (= (rec__database__email_access__is_null_pointer a) true)))

(declare-const us_null_pointer us_rep1)

;; __null_pointer__def_axiom
  (assert
  (= (rec__database__email_access__is_null_pointer us_null_pointer) true))

(declare-const dummy6 us_rep1)

(declare-datatypes ((email_access__ref 0))
(((email_access__refqtmk (email_access__content us_rep1)))))
(define-fun email_access__ref_email_access__content__projection ((a email_access__ref)) us_rep1 
  (email_access__content a))

(declare-datatypes ((us_split_fields 0))
(((us_split_fieldsqtmk
  (rec__database__db_entry_type__key integer)(rec__database__db_entry_type__email us_rep1)))))
(define-fun us_split_fields_rec__database__db_entry_type__key__projection ((a us_split_fields)) integer 
  (rec__database__db_entry_type__key a))

(define-fun us_split_fields_rec__database__db_entry_type__email__projection ((a us_split_fields)) us_rep1 
  (rec__database__db_entry_type__email a))

(declare-datatypes ((us_split_fields__ref 0))
(((us_split_fields__refqtmk (us_split_fields__content us_split_fields)))))
(define-fun us_split_fields__ref___split_fields__content__projection ((a us_split_fields__ref)) us_split_fields 
  (us_split_fields__content a))

(declare-datatypes ((us_rep2 0))
(((us_repqtmk1 (us_split_fields1 us_split_fields)))))
(define-fun us_rep___split_fields__projection ((a us_rep2)) us_split_fields 
  (us_split_fields1 a))

(define-fun bool_eq4 ((a us_rep2)
  (b us_rep2)) Bool (ite (and
                         (= (to_rep
                            (rec__database__db_entry_type__key
                            (us_split_fields1 a))) (to_rep
                                                   (rec__database__db_entry_type__key
                                                   (us_split_fields1 b))))
                         (= (bool_eq3
                            (rec__database__db_entry_type__email
                            (us_split_fields1 a))
                            (rec__database__db_entry_type__email
                            (us_split_fields1 b))) true))
                    true false))

(declare-const value__size2 Int)

(declare-const object__size2 Int)

(declare-const alignment2 Int)

;; value__size_axiom
  (assert (<= 0 value__size2))

;; object__size_axiom
  (assert (<= 0 object__size2))

;; alignment_axiom
  (assert (<= 0 alignment2))

(declare-const database__db_entry_type__key__first__bit Int)

(declare-const database__db_entry_type__key__last__bit Int)

(declare-const database__db_entry_type__key__position Int)

;; database__db_entry_type__key__first__bit_axiom
  (assert (<= 0 database__db_entry_type__key__first__bit))

;; database__db_entry_type__key__last__bit_axiom
  (assert
  (< database__db_entry_type__key__first__bit database__db_entry_type__key__last__bit))

;; database__db_entry_type__key__position_axiom
  (assert (<= 0 database__db_entry_type__key__position))

(declare-const database__db_entry_type__email__first__bit Int)

(declare-const database__db_entry_type__email__last__bit Int)

(declare-const database__db_entry_type__email__position Int)

;; database__db_entry_type__email__first__bit_axiom
  (assert (<= 0 database__db_entry_type__email__first__bit))

;; database__db_entry_type__email__last__bit_axiom
  (assert
  (< database__db_entry_type__email__first__bit database__db_entry_type__email__last__bit))

;; database__db_entry_type__email__position_axiom
  (assert (<= 0 database__db_entry_type__email__position))

(declare-fun user_eq6 (us_rep2 us_rep2) Bool)

(declare-const dummy7 us_rep2)

(declare-datatypes ((db_entry_type__ref 0))
(((db_entry_type__refqtmk (db_entry_type__content us_rep2)))))
(define-fun db_entry_type__ref_db_entry_type__content__projection ((a db_entry_type__ref)) us_rep2 
  (db_entry_type__content a))

(declare-datatypes ((element_type__ref 0))
(((element_type__refqtmk (element_type__content us_rep2)))))
(define-fun element_type__ref_element_type__content__2__projection ((a element_type__ref)) us_rep2 
  (element_type__content a))

(declare-fun get (us_rep Int) us_rep2)

(declare-fun get__function_guard (us_rep2 us_rep Int) Bool)

(define-fun oeq ((left us_rep)
  (right us_rep)) Bool (and (= (length left) (length right)) (ite (forall
                                                                  ((n Int))
                                                                  (=>
                                                                  (and
                                                                  (<= 1 n)
                                                                  (<= n 
                                                                  (last left)))
                                                                  (= 
                                                                  (bool_eq4
                                                                  (get left
                                                                  n)
                                                                  (get right
                                                                  n)) true)))
                                                             true false)))

(declare-fun oeq__function_guard (Bool us_rep us_rep) Bool)

;; user_eq__def_axiom
  (assert
  (forall ((a us_rep) (b us_rep))
  (! (= (user_eq a b) (oeq a b)) :pattern ((user_eq a b)) )))

(define-fun default_initial_assumption ((temp___expr_351 us_rep)
  (temp___skip_top_level_352 Bool)) Bool (=>
                                         (not
                                         (= temp___skip_top_level_352 true))
                                         (= (length temp___expr_351) 0)))

;; length__post_axiom
  (assert
  (forall ((container us_rep))
  (! (let ((result (length container)))
     (and (<= (+ 0 result) 2147483647) (dynamic_invariant result true false
     true true))) :pattern ((length container)) )))

(declare-sort extended_index 0)

(declare-fun extended_indexqtint (extended_index) Int)

;; extended_index'axiom
  (assert
  (forall ((i extended_index))
  (and (<= 0 (extended_indexqtint i))
  (<= (extended_indexqtint i) 2147483647))))

(define-fun in_range5 ((x Int)) Bool (and (<= 0 x) (<= x 2147483647)))

(declare-fun attr__ATTRIBUTE_IMAGE5 (Int) us_image)

(declare-fun attr__ATTRIBUTE_VALUE__pre_check5 (us_image) Bool)

(declare-fun attr__ATTRIBUTE_VALUE5 (us_image) Int)

(declare-fun user_eq7 (extended_index extended_index) Bool)

(declare-const dummy8 extended_index)

(declare-datatypes ((extended_index__ref 0))
(((extended_index__refqtmk (extended_index__content extended_index)))))
(define-fun extended_index__ref_extended_index__content__projection ((a extended_index__ref)) extended_index 
  (extended_index__content a))

(define-fun dynamic_invariant1 ((temp___expr_343 Int)
  (temp___is_init_339 Bool) (temp___skip_constant_340 Bool)
  (temp___do_toplevel_341 Bool)
  (temp___do_typ_inv_342 Bool)) Bool (=>
                                     (or (= temp___is_init_339 true)
                                     (<= 0 2147483647)) (in_range5
                                     temp___expr_343)))

(declare-const left us_rep)

(declare-const attr__ATTRIBUTE_ADDRESS Int)

(declare-const right us_rep)

(declare-const attr__ATTRIBUTE_ADDRESS1 Int)

(declare-const fst Int)

(declare-const attr__ATTRIBUTE_ADDRESS2 Int)

(declare-const lst Int)

(declare-const attr__ATTRIBUTE_ADDRESS3 Int)

(declare-const offset Int)

(declare-const attr__ATTRIBUTE_ADDRESS4 Int)

(declare-sort tcount_typeB 0)

(declare-fun tcount_typeBqtint (tcount_typeB) Int)

;; tcount_typeB'axiom
  (assert
  (forall ((i tcount_typeB))
  (and (<= (- 2147483648) (tcount_typeBqtint i))
  (<= (tcount_typeBqtint i) 2147483647))))

(define-fun in_range6 ((x Int)) Bool (and (<= (- 2147483648) x)
                                     (<= x 2147483647)))

(declare-fun attr__ATTRIBUTE_IMAGE6 (Int) us_image)

(declare-fun attr__ATTRIBUTE_VALUE__pre_check6 (us_image) Bool)

(declare-fun attr__ATTRIBUTE_VALUE6 (us_image) Int)

(declare-fun user_eq8 (tcount_typeB tcount_typeB) Bool)

(declare-const dummy9 tcount_typeB)

(declare-datatypes ((tcount_typeB__ref 0))
(((tcount_typeB__refqtmk (tcount_typeB__content tcount_typeB)))))
(define-fun tcount_typeB__ref_tcount_typeB__content__projection ((a tcount_typeB__ref)) tcount_typeB 
  (tcount_typeB__content a))

(declare-sort index_type 0)

(declare-fun index_typeqtint (index_type) Int)

;; index_type'axiom
  (assert
  (forall ((i index_type))
  (and (<= 1 (index_typeqtint i)) (<= (index_typeqtint i) 2147483647))))

(define-fun in_range7 ((x Int)) Bool (and (<= 1 x) (<= x 2147483647)))

(declare-fun attr__ATTRIBUTE_IMAGE7 (Int) us_image)

(declare-fun attr__ATTRIBUTE_VALUE__pre_check7 (us_image) Bool)

(declare-fun attr__ATTRIBUTE_VALUE7 (us_image) Int)

(declare-fun user_eq9 (index_type index_type) Bool)

(declare-const dummy10 index_type)

(declare-datatypes ((index_type__ref 0))
(((index_type__refqtmk (index_type__content index_type)))))
(define-fun index_type__ref_index_type__content__projection ((a index_type__ref)) index_type 
  (index_type__content a))

(define-fun dynamic_invariant2 ((temp___expr_326 Int)
  (temp___is_init_322 Bool) (temp___skip_constant_323 Bool)
  (temp___do_toplevel_324 Bool)
  (temp___do_typ_inv_325 Bool)) Bool (=>
                                     (or (= temp___is_init_322 true)
                                     (<= 1 2147483647)) (in_range7
                                     temp___expr_326)))

(define-fun dynamic_invariant3 ((temp___expr_18 Int) (temp___is_init_14 Bool)
  (temp___skip_constant_15 Bool) (temp___do_toplevel_16 Bool)
  (temp___do_typ_inv_17 Bool)) Bool (=>
                                    (or (= temp___is_init_14 true)
                                    (<= (- 2147483648) 2147483647))
                                    (in_range2 temp___expr_18)))

(define-fun dynamic_invariant4 ((temp___expr_46 Int) (temp___is_init_42 Bool)
  (temp___skip_constant_43 Bool) (temp___do_toplevel_44 Bool)
  (temp___do_typ_inv_45 Bool)) Bool (=>
                                    (or (= temp___is_init_42 true)
                                    (<= 1 2147483647)) (in_range3
                                    temp___expr_46)))

(define-fun dynamic_invariant5 ((temp___expr_279 us_rep2)
  (temp___is_init_275 Bool) (temp___skip_constant_276 Bool)
  (temp___do_toplevel_277 Bool)
  (temp___do_typ_inv_278 Bool)) Bool (=>
                                     (not
                                     (= (rec__database__email_access__is_null_pointer
                                        (rec__database__db_entry_type__email
                                        (us_split_fields1 temp___expr_279))) true))
                                     (dynamic_property 1 2147483647
                                     (first1
                                     (rec__database__email_access__pointer_value
                                     (rec__database__db_entry_type__email
                                     (us_split_fields1 temp___expr_279))))
                                     (last2
                                     (rec__database__email_access__pointer_value
                                     (rec__database__db_entry_type__email
                                     (us_split_fields1 temp___expr_279)))))))

(define-fun default_initial_assumption1 ((temp___expr_281 us_rep2)
  (temp___skip_top_level_282 Bool)) Bool (= (rec__database__email_access__is_null_pointer
                                            (rec__database__db_entry_type__email
                                            (us_split_fields1
                                            temp___expr_281))) true))

(define-fun dynamic_invariant6 ((temp___expr_263 us_t)
  (temp___is_init_259 Bool) (temp___skip_constant_260 Bool)
  (temp___do_toplevel_261 Bool)
  (temp___do_typ_inv_262 Bool)) Bool (=>
                                     (not (= temp___skip_constant_260 true))
                                     (dynamic_property 1 2147483647
                                     (first1 temp___expr_263)
                                     (last2 temp___expr_263))))

(define-fun dynamic_invariant7 ((temp___expr_269 us_rep1)
  (temp___is_init_265 Bool) (temp___skip_constant_266 Bool)
  (temp___do_toplevel_267 Bool)
  (temp___do_typ_inv_268 Bool)) Bool (=>
                                     (not
                                     (= (rec__database__email_access__is_null_pointer
                                        temp___expr_269) true))
                                     (dynamic_property 1 2147483647
                                     (first1
                                     (rec__database__email_access__pointer_value
                                     temp___expr_269))
                                     (last2
                                     (rec__database__email_access__pointer_value
                                     temp___expr_269)))))

(define-fun default_initial_assumption2 ((temp___expr_271 us_rep1)
  (temp___skip_top_level_272 Bool)) Bool (= (rec__database__email_access__is_null_pointer
                                            temp___expr_271) true))

(define-fun dynamic_invariant8 ((temp___expr_333 us_rep2)
  (temp___is_init_329 Bool) (temp___skip_constant_330 Bool)
  (temp___do_toplevel_331 Bool)
  (temp___do_typ_inv_332 Bool)) Bool (=>
                                     (not
                                     (= (rec__database__email_access__is_null_pointer
                                        (rec__database__db_entry_type__email
                                        (us_split_fields1 temp___expr_333))) true))
                                     (dynamic_property 1 2147483647
                                     (first1
                                     (rec__database__email_access__pointer_value
                                     (rec__database__db_entry_type__email
                                     (us_split_fields1 temp___expr_333))))
                                     (last2
                                     (rec__database__email_access__pointer_value
                                     (rec__database__db_entry_type__email
                                     (us_split_fields1 temp___expr_333)))))))

(define-fun default_initial_assumption3 ((temp___expr_335 us_rep2)
  (temp___skip_top_level_336 Bool)) Bool (= (rec__database__email_access__is_null_pointer
                                            (rec__database__db_entry_type__email
                                            (us_split_fields1
                                            temp___expr_335))) true))

;; get__post_axiom
  (assert
  (forall ((container us_rep))
  (forall ((position Int))
  (! (=>
     (and (dynamic_invariant1 position true true true true)
     (and (<= 1 position) (<= position (last container))))
     (dynamic_invariant8 (get container position) true false true true)) :pattern (
  (get container position)) ))))

(assert
;; defqtvc
 ;; File "a-cofuve.ads", line 217, characters 0-0
  (not
  (forall ((o Bool))
  (=> (dynamic_invariant2 fst true false true true)
  (=> (dynamic_invariant1 lst true false true true)
  (=> (in_range6 offset)
  (=>
  (let ((o1 left))
  (let ((o2 (last o1)))
  (and
  (and (dynamic_invariant1 o2 true false true true) (= o2 (+ 0 (length o1))))
  (ite (<= lst o2)
  (and (or (not (< offset 0)) (in_range6 (- (- 2147483648) offset)))
  (= o (ite (< offset 0) (ite (<= (- (- 2147483648) offset) 1) true false)
       (distinct 1 0))))
  (= o false)))))
  (=> (= o true)
  (=> (<= fst lst)
  (=> (in_range6 lst)
  (let ((o1 (length right)))
  (=>
  (and (dynamic_invariant o1 true false true true) (<= (+ 0 o1) 2147483647))
  (in_range6 (+ 0 o1))))))))))))))
(check-sat)
